# setup parameters in tag = value syntax to simulate a single-atom enviroment 

SYSTEM = Atom: H     #label
ENCUT  = 500.00 eV   #energy cut-off
EDIFF  =             #stopping-criterion for ELM
NELMDL =  
POMASS = 1.00784     #mass (potentially not needed)
ZVAL   = 1.0         #valence
ISMEAR = 0
SIGMA  = 0.1         #use smearing method. might need to be somewhere 0.1 > x > 0, but neccessary
