H Cubic
1
     15.00000    .00000    .00000
       .00000  15.00000    .00000
       .00000    .00000  15.00000
   1
cart
 0    0    0
