atom cubic
1
       .00000    .00000    .00000
       .00000    .00000    .00000
       .00000    .00000    .00000
   1
cart
 0    0    0
